%SETS
JOBS     = 1..5;
MACHINES = 1..10;
SPEED    = 5;

time        = array3d(JOBS,MACHINES,1..SPEED,[4, 1, 1, 1, 1, 54, 18, 13, 11, 9, 78, 26, 19, 15, 14, 1, 1, 1, 1, 1, 31, 10, 7, 6, 5, 22, 7, 5, 4, 3, 59, 20, 14, 12, 10, 28, 9, 6, 5, 5, 20, 7, 5, 4, 3, 31, 10, 7, 6, 5, 12, 4, 3, 2, 2, 30, 10, 7, 6, 5, 45, 15, 11, 9, 8, 16, 5, 3, 3, 2, 73, 25, 17, 14, 13, 42, 14, 10, 8, 7, 105, 36, 25, 21, 19, 4, 1, 1, 1, 1, 19, 6, 4, 3, 3, 75, 26, 18, 15, 13, 27, 9, 6, 5, 4, 51, 17, 12, 10, 9, 91, 31, 22, 18, 16, 5, 1, 1, 1, 1, 7, 2, 1, 1, 1, 53, 18, 13, 10, 9, 61, 21, 15, 12, 11, 36, 12, 9, 7, 6, 11, 3, 2, 2, 1, 16, 5, 3, 3, 2, 24, 8, 5, 4, 4, 17, 6, 4, 3, 3, 16, 5, 4, 3, 3, 14, 5, 3, 3, 2, 52, 18, 12, 10, 9, 5, 1, 1, 1, 1, 30, 10, 7, 6, 5, 31, 10, 7, 6, 5, 67, 23, 16, 13, 12, 1, 1, 1, 1, 1, 26, 9, 6, 5, 4, 26, 9, 6, 5, 4, 16, 5, 3, 3, 2, 1, 1, 1, 1, 1, 1, 1, 1, 1, 1, 4, 1, 1, 1, 1, 40, 14, 10, 8, 7, 4, 1, 1, 1, 1, 3, 1, 1, 1, 1, 11, 3, 2, 2, 2]);
energy      = array3d(JOBS,MACHINES,1..SPEED,[96, 99, 99, 99, 99, 58, 83, 87, 89, 91, 45, 77, 82, 86, 86, 99, 99, 99, 99, 99, 73, 90, 93, 94, 95, 80, 93, 95, 96, 97, 55, 81, 86, 88, 90, 75, 91, 94, 95, 95, 81, 93, 95, 96, 97, 73, 90, 93, 94, 95, 88, 96, 97, 98, 98, 74, 90, 93, 94, 95, 63, 86, 89, 91, 92, 85, 95, 97, 97, 98, 48, 77, 84, 86, 87, 65, 86, 90, 92, 93, 34, 69, 77, 81, 82, 96, 99, 99, 99, 99, 82, 94, 96, 97, 97, 47, 77, 83, 86, 87, 76, 91, 94, 95, 96, 60, 84, 88, 90, 91, 40, 73, 80, 83, 85, 95, 99, 99, 99, 99, 93, 98, 99, 99, 99, 58, 83, 87, 90, 91, 54, 81, 86, 88, 89, 69, 88, 91, 93, 94, 89, 97, 98, 98, 99, 85, 95, 97, 97, 98, 78, 92, 95, 96, 96, 84, 94, 96, 97, 97, 85, 95, 96, 97, 97, 86, 95, 97, 97, 98, 59, 83, 88, 90, 91, 95, 99, 99, 99, 99, 74, 90, 93, 94, 95, 73, 90, 93, 94, 95, 51, 79, 85, 87, 88, 99, 99, 99, 99, 99, 77, 91, 94, 95, 96, 77, 91, 94, 95, 96, 85, 95, 97, 97, 98, 99, 99, 99, 99, 99, 99, 99, 99, 99, 99, 96, 99, 99, 99, 99, 67, 86, 90, 92, 93, 96, 99, 99, 99, 99, 97, 99, 99, 99, 99, 89, 97, 98, 98, 98]);
precedence  = array2d(JOBS,MACHINES,[8, 7, 1, 3, 9, 0, 6, 4, 2, 5, 8, 7, 4, 1, 2, 9, 0, 3, 6, 5, 7, 1, 8, 2, 5, 6, 9, 3, 4, 0, 0, 2, 5, 7, 6, 3, 1, 8, 4, 9, 1, 4, 7, 3, 6, 9, 0, 8, 2, 5]);
releaseDate = array2d(JOBS,MACHINES,[180, 156, 88, 116, 181, 80, 137, 117, 110, 128, 99, 92, 53, 26, 30, 103, 0, 52, 88, 64, 156, 75, 163, 103, 134, 135, 200, 104, 130, 70, 0, 14, 36, 63, 43, 19, 7, 68, 20, 79, 30, 38, 51, 37, 49, 55, 20, 54, 36, 44]);
dueDate     = array2d(JOBS,MACHINES,[181, 180, 110, 117, 189, 88, 156, 128, 116, 137, 103, 99, 64, 30, 52, 117, 26, 53, 92, 88, 163, 103, 200, 104, 135, 156, 224, 130, 134, 75, 7, 19, 43, 68, 63, 20, 14, 79, 36, 80, 36, 44, 54, 38, 51, 57, 30, 55, 37, 49]);